// Dezyne --- Dezyne command line tools
//
// Copyright © 2014, 2015 Rob Wieringa <Rob.Wieringa@verum.com>
// Copyright © 2015 Rutger van Beusekom <rutger.van.beusekom@verum.com>
// Copyright © 2015 Jan Nieuwenhuizen <janneke@gnu.org>
//
// This file is part of Dezyne.
//
// Dezyne is free software: you can redistribute it and/or modify it
// under the terms of the GNU Affero General Public License as
// published by the Free Software Foundation, either version 3 of the
// License, or (at your option) any later version.
//
// Dezyne is distributed in the hope that it will be useful, but
// WITHOUT ANY WARRANTY; without even the implied warranty of
// MERCHANTABILITY or FITNESS FOR A PARTICULAR PURPOSE.  See the GNU
// Affero General Public License for more details.
//
// You should have received a copy of the GNU Affero General Public
// License along with Dezyne.  If not, see <http://www.gnu.org/licenses/>.
//
// Commentary:
//
// Code:

import ISensor.dzn;
import ISiren.dzn;
import IConsole.dzn;

component Alarm
{
    provides IConsole console;
    requires ISensor sensor;
    requires ISiren siren;

  behaviour d
  {
    enum States { Disarmed, Armed, Triggered, Disarming };
    States state = States.Disarmed;
    bool sounding = false;

    [state.Disarmed]
    {
      on console.arm():
      {
        sensor.enable();
        state = States.Armed;
      }
      on console.disarm(), sensor.triggered(), sensor.disabled():
        illegal;
    }
    [state.Armed]
    {
      on console.arm():
        illegal;
      blocking on console.disarm():
      {
        sensor.disable();
        state = States.Disarming;
      }
      on sensor.triggered():
      {
        console.detected();
        siren.turnon();
        sounding = true;
        state = States.Triggered;
      }
      on sensor.disabled():
        illegal;
    }
    [state.Disarming]
    {
      on console.arm(), console.disarm():
        illegal;
      on sensor.triggered():
      {
        illegal;
      }
      on sensor.disabled():
      {
        if(sounding)
        {
          siren.turnoff();
          sounding = false;
        }
        state = States.Disarmed;
        console.reply();
      }
    }
    [state.Triggered]
    {
      on console.arm():
        illegal;

      on console.disarm():
      {
        sensor.disable();
        state = States.Disarming;
      }
      on sensor.triggered(), sensor.disabled():
        illegal;
    }
  }
}
